logging:
Cal Parameter: OK
initial master model!!
initial sub model!
the ToD used now : 390.0
big Pi is 393.0
CPXPARAM_TimeLimit                               1000
CPXPARAM_MIP_Tolerances_MIPGap                   0.81000000000000005
Tried aggregator 2 times.
MIP Presolve eliminated 142657 rows and 138284 columns.
MIP Presolve modified 56725 coefficients.
Aggregator did 6 substitutions.
Reduced MIP has 9847 rows, 93251 columns, and 964628 nonzeros.
Reduced MIP has 93251 binaries, 0 generals, 0 SOSs, and 0 indicators.
Presolve time = 1.83 sec. (1106.84 ticks)
Found incumbent of value 0.000000 after 3.08 sec. (1961.32 ticks)
Tried aggregator 1 time.
Reduced MIP has 9847 rows, 93251 columns, and 964628 nonzeros.
Reduced MIP has 93251 binaries, 0 generals, 0 SOSs, and 0 indicators.
Presolve time = 0.97 sec. (566.80 ticks)
Probing fixed 64 vars, tightened 0 bounds.
Probing time = 2.88 sec. (1272.60 ticks)
Clique table members: 476082.
MIP emphasis: balance optimality and feasibility.
MIP search method: dynamic search.
Parallel mode: deterministic, using up to 4 threads.
Root relaxation solution time = 11.83 sec. (6936.78 ticks)

        Nodes                                         Cuts/
   Node  Left     Objective  IInf  Best Integer    Best Bound    ItCnt     Gap

*     0+    0                            0.0000    22321.0000              --- 
      0     0       18.8981   134        0.0000       18.8981    16697     --- 
      0     0       18.8824   129        0.0000       Cuts: 5    16959     --- 
      0     0       18.8726   130        0.0000     Covers: 2    17033     --- 
*     0+    0                            3.0000       18.8726           529.09%
      0     2       18.8726   130        3.0000       18.8726    17033  529.09%
Elapsed time = 63.08 sec. (30180.55 ticks, tree = 0.02 MB, solutions = 2)
      1     3       17.9504   134        3.0000       18.8725    18921  529.08%
      3     5       18.7007   120        3.0000       18.7199    19496  524.00%
      4     4       17.3597   104        3.0000       18.7199    19530  524.00%
      5     6       18.6704   127        3.0000       18.7199    19750  524.00%
      7     7       17.1941   120        3.0000       18.7199    20624  524.00%
      9     9       16.8637    84        3.0000       18.7199    23758  524.00%
     10     4       17.7926   105        3.0000       18.7199    19569  524.00%
     11    10       16.6469   138        3.0000       18.7199    39609  524.00%
     12    10       17.9020   117        3.0000       18.7199    21821  524.00%
     16     5       16.5783    89        3.0000       18.7199    22277  524.00%
Elapsed time = 83.38 sec. (39345.10 ticks, tree = 0.04 MB, solutions = 2)
     19    14       15.0889    82        3.0000       18.7199    54828  524.00%
     21    21       14.9685    82        3.0000       18.7006    76361  523.35%
